(set-logic QF_S)
(declare-fun var0 () String)
(assert (str.in.re var0 (re.++ (re.union (re.union (str.to.re "0") (str.to.re "111")) (re.union (str.to.re "2") (str.to.re "333"))) (re.++ (re.union (re.* (str.to.re "4")) (re.* (str.to.re "55"))) (re.++ (re.union (re.+ (str.to.re "666")) (re.+ (str.to.re "777"))) (re.++ (re.+ (re.union (str.to.re "8") (str.to.re "99"))) (re.++ (re.* (re.* (str.to.re "aa"))) (re.++ (re.+ (re.* (str.to.re "bbb"))) (re.++ (re.* (re.union (str.to.re "c") (str.to.re "ddd"))) (re.++ (re.* (re.+ (str.to.re "eee"))) (re.++ (re.+ (re.+ (str.to.re "fff"))) (re.union (re.union (str.to.re "g") (str.to.re "h")) (re.union (str.to.re "ii") (str.to.re "jjj"))))))))))))))
(assert (<= 76 (str.len var0)))
(check-sat)